% Auto-generated by scripts/generate_dzn.py
% problem_type   = shift_scheduling
% instance       = shift_scheduling_7
% source_json    = instances_json/0_low_blowup/shift_scheduling_7.json
% blowup         = 1.2222222222222223
% representation = DFA

mode = 0;

sequence_length = 14;
n_constraints = 2;
Q = 33;
S = 4;
q0 = [1, 1];
F = [{33}, {33}];
d_dfa = array3d(1..2, 1..33, 1..4, [
  % k = 1
    1, 1, 2, 1,
    3, 3, 4, 3,
    5, 5, 6, 5,
    7, 7, 8, 7,
    9, 9, 10, 9,
    11, 11, 12, 11,
    13, 13, 14, 13,
    15, 15, 16, 15,
    17, 17, 18, 17,
    19, 19, 20, 19,
    21, 21, 22, 21,
    23, 23, 24, 23,
    25, 25, 26, 25,
    27, 27, 28, 27,
    29, 29, 30, 29,
    31, 31, 32, 31,
    1, 1, 2, 33,
    3, 3, 4, 33,
    5, 5, 6, 33,
    7, 7, 8, 33,
    9, 9, 10, 33,
    11, 11, 12, 33,
    13, 13, 14, 33,
    15, 15, 16, 33,
    17, 17, 18, 33,
    19, 19, 20, 33,
    21, 21, 22, 33,
    23, 23, 24, 33,
    25, 25, 26, 33,
    27, 27, 28, 33,
    29, 29, 30, 33,
    31, 31, 32, 33,
    33, 33, 33, 33,

  % k = 2
    1, 2, 1, 1,
    3, 4, 3, 3,
    5, 6, 5, 5,
    7, 8, 7, 7,
    9, 10, 9, 9,
    11, 12, 11, 11,
    13, 14, 13, 13,
    15, 16, 15, 15,
    17, 18, 17, 17,
    19, 20, 19, 19,
    21, 22, 21, 21,
    23, 24, 23, 23,
    25, 26, 25, 25,
    27, 28, 27, 27,
    29, 30, 29, 29,
    31, 32, 31, 31,
    1, 2, 1, 33,
    3, 4, 3, 33,
    5, 6, 5, 33,
    7, 8, 7, 33,
    9, 10, 9, 33,
    11, 12, 11, 33,
    13, 14, 13, 33,
    15, 16, 15, 33,
    17, 18, 17, 33,
    19, 20, 19, 33,
    21, 22, 21, 33,
    23, 24, 23, 33,
    25, 26, 25, 33,
    27, 28, 27, 33,
    29, 30, 29, 33,
    31, 32, 31, 33,
    33, 33, 33, 33
]);
d_nfa = array3d(1..2, 1..33, 1..4, [
  % k = 1
    {}, {}, {}, {},
    {}, {}, {}, {},
    {}, {}, {}, {},
    {}, {}, {}, {},
    {}, {}, {}, {},
    {}, {}, {}, {},
    {}, {}, {}, {},
    {}, {}, {}, {},
    {}, {}, {}, {},
    {}, {}, {}, {},
    {}, {}, {}, {},
    {}, {}, {}, {},
    {}, {}, {}, {},
    {}, {}, {}, {},
    {}, {}, {}, {},
    {}, {}, {}, {},
    {}, {}, {}, {},
    {}, {}, {}, {},
    {}, {}, {}, {},
    {}, {}, {}, {},
    {}, {}, {}, {},
    {}, {}, {}, {},
    {}, {}, {}, {},
    {}, {}, {}, {},
    {}, {}, {}, {},
    {}, {}, {}, {},
    {}, {}, {}, {},
    {}, {}, {}, {},
    {}, {}, {}, {},
    {}, {}, {}, {},
    {}, {}, {}, {},
    {}, {}, {}, {},
    {}, {}, {}, {},

  % k = 2
    {}, {}, {}, {},
    {}, {}, {}, {},
    {}, {}, {}, {},
    {}, {}, {}, {},
    {}, {}, {}, {},
    {}, {}, {}, {},
    {}, {}, {}, {},
    {}, {}, {}, {},
    {}, {}, {}, {},
    {}, {}, {}, {},
    {}, {}, {}, {},
    {}, {}, {}, {},
    {}, {}, {}, {},
    {}, {}, {}, {},
    {}, {}, {}, {},
    {}, {}, {}, {},
    {}, {}, {}, {},
    {}, {}, {}, {},
    {}, {}, {}, {},
    {}, {}, {}, {},
    {}, {}, {}, {},
    {}, {}, {}, {},
    {}, {}, {}, {},
    {}, {}, {}, {},
    {}, {}, {}, {},
    {}, {}, {}, {},
    {}, {}, {}, {},
    {}, {}, {}, {},
    {}, {}, {}, {},
    {}, {}, {}, {},
    {}, {}, {}, {},
    {}, {}, {}, {},
    {}, {}, {}, {}
]);
